(set-logic BV)
(declare-fun V_0 () (_ BitVec 5))
(declare-fun V_1 () (_ BitVec 1))
(declare-fun V_2 () (_ BitVec 8))
(declare-fun V_3 () (_ BitVec 5))
(declare-fun V_18 () (_ BitVec 2))
(declare-fun V_19 () (_ BitVec 1))
(declare-fun V_6 () Bool)
(declare-fun V_7 () (_ BitVec 8))
(declare-fun V_8 () Bool)
(declare-fun V_9 () Bool)
(declare-fun V_10 () Bool)
(declare-fun V_12 () (_ BitVec 1))
(declare-fun V_11 () Bool)
(assert (let ((.def_0 (forall ((V_14 (_ BitVec 16))(V_15 (_ BitVec 16))) (let ((.def_0 (= V_19 #b1))) (let ((.def_1 (= V_18 #b10))) (let ((.def_2 (concat V_1 V_0))) (let ((.def_3 (concat V_2 .def_2))) (let ((.def_4 (concat V_3 .def_3))) (let ((.def_5 (concat V_14 V_15))) (let ((.def_6 (concat .def_5 .def_4))) (let ((.def_7 (ite V_6 #b1 #b0))) (let ((.def_8 (concat .def_7 .def_6))) (let ((.def_9 (concat V_7 .def_8))) (let ((.def_10 (ite V_8 #b1 #b0))) (let ((.def_11 (ite V_9 #b1 #b0))) (let ((.def_12 (concat .def_11 .def_10))) (let ((.def_13 (ite V_10 #b1 #b0))) (let ((.def_14 (concat .def_13 .def_12))) (let ((.def_15 (concat .def_14 .def_9))) (let ((.def_16 (ite V_11 #b1 #b0))) (let ((.def_17 (concat .def_16 .def_15))) (let ((.def_18 ((_ extract 50 19) .def_17))) (let ((.def_19 ((_ extract 31 16) .def_18))) (let ((.def_20 (bvnot .def_19))) (let ((.def_21 ((_ extract 18 0) .def_17))) (let ((.def_22 ((_ extract 4 0) .def_21))) (let ((.def_23 ((_ extract 4 0) .def_22))) (let ((.def_24 (= .def_23 #b00001))) (let ((.def_25 (= .def_23 #b00110))) (let ((.def_26 (or .def_25 .def_24))) (let ((.def_27 (ite .def_26 .def_20 .def_19))) (let ((.def_28 ((_ extract 15 0) .def_18))) (let ((.def_29 (bvshl .def_28 .def_27))) (let ((.def_30 (= .def_23 #b10001))) (let ((.def_31 (ite .def_30 .def_29 #b0000000000000000))) (let ((.def_32 (bvlshr .def_28 .def_19))) (let ((.def_33 (bvashr .def_28 .def_19))) (let ((.def_34 ((_ extract 5 5) .def_21))) (let ((.def_35 (= .def_34 #b1))) (let ((.def_36 (ite .def_35 .def_33 .def_32))) (let ((.def_37 (= .def_23 #b01111))) (let ((.def_38 (ite .def_37 .def_36 .def_31))) (let ((.def_39 (bvxor .def_28 .def_27))) (let ((.def_40 (= .def_23 #b10100))) (let ((.def_41 (ite .def_40 .def_39 .def_38))) (let ((.def_42 (bvor .def_28 .def_27))) (let ((.def_43 (= .def_23 #b10010))) (let ((.def_44 (ite .def_43 .def_42 .def_41))) (let ((.def_45 (bvand .def_28 .def_27))) (let ((.def_46 (= .def_23 #b10011))) (let ((.def_47 (ite .def_46 .def_45 .def_44))) (let ((.def_48 ((_ extract 62 60) .def_17))) (let ((.def_49 ((_ extract 0 0) .def_48))) (let ((.def_50 ((_ extract 0 0) .def_49))) (let ((.def_51 (= .def_50 #b1))) (let ((.def_52 (ite .def_51 .def_28 .def_27))) (let ((.def_53 (= .def_23 #b01000))) (let ((.def_54 (ite .def_53 .def_52 .def_47))) (let ((.def_55 (bvneg .def_28))) (let ((.def_56 (bvsle #b0000000000000000 .def_28))) (let ((.def_57 (ite .def_35 .def_56 true))) (let ((.def_58 (ite .def_57 .def_28 .def_55))) (let ((.def_59 (= .def_23 #b00011))) (let ((.def_60 (ite .def_59 .def_58 .def_54))) (let ((.def_61 (bvule .def_28 .def_19))) (let ((.def_62 (bvsle .def_28 .def_19))) (let ((.def_63 (ite .def_35 .def_62 .def_61))) (let ((.def_64 (ite .def_63 .def_28 .def_27))) (let ((.def_65 (= .def_23 #b00101))) (let ((.def_66 (ite .def_65 .def_64 .def_60))) (let ((.def_67 (bvule .def_19 .def_28))) (let ((.def_68 (bvsle .def_19 .def_28))) (let ((.def_69 (ite .def_35 .def_68 .def_67))) (let ((.def_70 (ite .def_69 .def_28 .def_27))) (let ((.def_71 (= .def_23 #b00100))) (let ((.def_72 (ite .def_71 .def_70 .def_66))) (let ((.def_73 (= .def_23 #b00010))) (let ((.def_74 (or .def_25 .def_73))) (let ((.def_75 (ite .def_74 .def_51 false))) (let ((.def_76 (ite .def_24 true .def_75))) (let ((.def_77 (= .def_23 #b00000))) (let ((.def_78 (ite .def_77 false .def_76))) (let ((.def_79 (ite .def_78 #b1 #b0))) (let ((.def_80 ((_ zero_extend 16) .def_79))) (let ((.def_81 ((_ zero_extend 1) .def_27))) (let ((.def_82 ((_ zero_extend 1) .def_28))) (let ((.def_83 (bvadd .def_82 .def_81))) (let ((.def_84 (bvadd .def_83 .def_80))) (let ((.def_85 ((_ extract 15 0) .def_84))) (let ((.def_86 (or .def_24 .def_77 .def_25 .def_73))) (let ((.def_87 (ite .def_86 .def_85 .def_72))) (let ((.def_88 (= .def_87 #b0000000000000000))) (let ((.def_89 (not .def_88))) (let ((.def_90 ((_ extract 15 15) .def_87))) (let ((.def_91 (= .def_90 #b1))) (let ((.def_92 (and .def_91 .def_89))) (let ((.def_93 (or .def_91 .def_88))) (let ((.def_94 ((_ extract 18 14) .def_21))) (let ((.def_95 (= .def_94 #b10010))) (let ((.def_96 (ite .def_95 .def_93 .def_92))) (let ((.def_97 (not .def_91))) (let ((.def_98 (and .def_97 .def_89))) (let ((.def_99 (= .def_94 #b10001))) (let ((.def_100 (ite .def_99 .def_98 .def_96))) (let ((.def_101 (or .def_97 .def_88))) (let ((.def_102 (= .def_94 #b10000))) (let ((.def_103 (ite .def_102 .def_101 .def_100))) (let ((.def_104 (ite .def_51 #b1 #b0))) (let ((.def_105 ((_ extract 1 1) .def_48))) (let ((.def_106 ((_ extract 0 0) .def_105))) (let ((.def_107 (= .def_106 #b1))) (let ((.def_108 (ite .def_107 #b1 #b0))) (let ((.def_109 (concat .def_108 .def_104))) (let ((.def_110 ((_ extract 2 2) .def_48))) (let ((.def_111 ((_ extract 0 0) .def_110))) (let ((.def_112 (= .def_111 #b1))) (let ((.def_113 (ite .def_112 #b1 #b0))) (let ((.def_114 (concat .def_113 .def_109))) (let ((.def_115 ((_ zero_extend 5) .def_114))) (let ((.def_116 ((_ extract 13 6) .def_21))) (let ((.def_117 (bvlshr .def_116 .def_115))) (let ((.def_118 (bvand .def_117 #b00000001))) (let ((.def_119 ((_ extract 0 0) .def_118))) (let ((.def_120 (= .def_119 #b1))) (let ((.def_121 (= .def_94 #b01110))) (let ((.def_122 (ite .def_121 .def_120 .def_103))) (let ((.def_123 ((_ extract 15 15) .def_28))) (let ((.def_124 (= .def_123 #b1))) (let ((.def_125 (ite .def_59 .def_124 false))) (let ((.def_126 (ite .def_65 .def_63 .def_125))) (let ((.def_127 (ite .def_71 .def_69 .def_126))) (let ((.def_128 ((_ extract 16 16) .def_84))) (let ((.def_129 (= .def_128 #b1))) (let ((.def_130 (ite .def_86 .def_129 .def_127))) (let ((.def_131 (= .def_94 #b01111))) (let ((.def_132 (ite .def_131 .def_130 .def_122))) (let ((.def_133 ((_ extract 15 15) .def_27))) (let ((.def_134 (= .def_133 #b1))) (let ((.def_135 (not .def_134))) (let ((.def_136 ((_ extract 15 15) .def_85))) (let ((.def_137 (= .def_136 #b1))) (let ((.def_138 (not .def_124))) (let ((.def_139 (and .def_138 .def_137 .def_135))) (let ((.def_140 (not .def_137))) (let ((.def_141 (and .def_124 .def_134 .def_140))) (let ((.def_142 (or .def_141 .def_139))) (let ((.def_143 (ite .def_86 .def_142 false))) (let ((.def_144 (= .def_91 .def_143))) (let ((.def_145 (not .def_144))) (let ((.def_146 (or .def_88 .def_145))) (let ((.def_147 (= .def_94 #b01101))) (let ((.def_148 (ite .def_147 .def_146 .def_132))) (let ((.def_149 (and .def_144 .def_89))) (let ((.def_150 (= .def_94 #b01100))) (let ((.def_151 (ite .def_150 .def_149 .def_148))) (let ((.def_152 (= .def_94 #b01011))) (let ((.def_153 (ite .def_152 .def_145 .def_151))) (let ((.def_154 (= .def_94 #b01010))) (let ((.def_155 (ite .def_154 .def_144 .def_153))) (let ((.def_156 (ite .def_86 .def_129 false))) (let ((.def_157 (not .def_156))) (let ((.def_158 (or .def_88 .def_157))) (let ((.def_159 (= .def_94 #b01001))) (let ((.def_160 (ite .def_159 .def_158 .def_155))) (let ((.def_161 (and .def_156 .def_89))) (let ((.def_162 (= .def_94 #b01000))) (let ((.def_163 (ite .def_162 .def_161 .def_160))) (let ((.def_164 (not .def_143))) (let ((.def_165 (= .def_94 #b00111))) (let ((.def_166 (ite .def_165 .def_164 .def_163))) (let ((.def_167 (= .def_94 #b00110))) (let ((.def_168 (ite .def_167 .def_143 .def_166))) (let ((.def_169 (= .def_94 #b00101))) (let ((.def_170 (ite .def_169 .def_97 .def_168))) (let ((.def_171 (= .def_94 #b00100))) (let ((.def_172 (ite .def_171 .def_91 .def_170))) (let ((.def_173 (= .def_94 #b00011))) (let ((.def_174 (ite .def_173 .def_157 .def_172))) (let ((.def_175 (= .def_94 #b00010))) (let ((.def_176 (ite .def_175 .def_156 .def_174))) (let ((.def_177 (= .def_94 #b00001))) (let ((.def_178 (ite .def_177 .def_89 .def_176))) (let ((.def_179 (= .def_94 #b00000))) (let ((.def_180 (ite .def_179 .def_88 .def_178))) (let ((.def_181 (ite .def_180 #b1 #b0))) (let ((.def_182 (concat .def_181 .def_87))) (let ((.def_183 (concat #b00000000000000000000000000000000 .def_182))) (let ((.def_184 ((_ extract 15 0) .def_183))) (let ((.def_185 ((_ extract 15 0) .def_184))) (let ((.def_186 (concat V_15 V_14))) (let ((.def_187 ((_ extract 31 16) .def_186))) (let ((.def_188 ((_ extract 15 0) .def_186))) (let ((.def_189 (bvadd .def_188 .def_187))) (let ((.def_190 ((_ extract 15 0) .def_189))) (let ((.def_191 (= .def_190 .def_185))) (let ((.def_192 (= V_12 #b1))) (let ((.def_193 (and .def_192 .def_191 .def_1 .def_0))) (let ((.def_194 (concat .def_186 .def_4))) (let ((.def_195 (concat .def_7 .def_194))) (let ((.def_196 (concat V_7 .def_195))) (let ((.def_197 (concat .def_14 .def_196))) (let ((.def_198 (concat .def_16 .def_197))) (let ((.def_199 ((_ extract 50 19) .def_198))) (let ((.def_200 ((_ extract 31 16) .def_199))) (let ((.def_201 (bvnot .def_200))) (let ((.def_202 ((_ extract 18 0) .def_198))) (let ((.def_203 ((_ extract 4 0) .def_202))) (let ((.def_204 ((_ extract 4 0) .def_203))) (let ((.def_205 (= .def_204 #b00001))) (let ((.def_206 (= .def_204 #b00110))) (let ((.def_207 (or .def_206 .def_205))) (let ((.def_208 (ite .def_207 .def_201 .def_200))) (let ((.def_209 ((_ extract 15 0) .def_199))) (let ((.def_210 (bvshl .def_209 .def_208))) (let ((.def_211 (= .def_204 #b10001))) (let ((.def_212 (ite .def_211 .def_210 #b0000000000000000))) (let ((.def_213 (bvlshr .def_209 .def_200))) (let ((.def_214 (bvashr .def_209 .def_200))) (let ((.def_215 ((_ extract 5 5) .def_202))) (let ((.def_216 (= .def_215 #b1))) (let ((.def_217 (ite .def_216 .def_214 .def_213))) (let ((.def_218 (= .def_204 #b01111))) (let ((.def_219 (ite .def_218 .def_217 .def_212))) (let ((.def_220 (bvxor .def_209 .def_208))) (let ((.def_221 (= .def_204 #b10100))) (let ((.def_222 (ite .def_221 .def_220 .def_219))) (let ((.def_223 (bvor .def_209 .def_208))) (let ((.def_224 (= .def_204 #b10010))) (let ((.def_225 (ite .def_224 .def_223 .def_222))) (let ((.def_226 (bvand .def_209 .def_208))) (let ((.def_227 (= .def_204 #b10011))) (let ((.def_228 (ite .def_227 .def_226 .def_225))) (let ((.def_229 ((_ extract 62 60) .def_198))) (let ((.def_230 ((_ extract 0 0) .def_229))) (let ((.def_231 ((_ extract 0 0) .def_230))) (let ((.def_232 (= .def_231 #b1))) (let ((.def_233 (ite .def_232 .def_209 .def_208))) (let ((.def_234 (= .def_204 #b01000))) (let ((.def_235 (ite .def_234 .def_233 .def_228))) (let ((.def_236 (bvneg .def_209))) (let ((.def_237 (bvsle #b0000000000000000 .def_209))) (let ((.def_238 (ite .def_216 .def_237 true))) (let ((.def_239 (ite .def_238 .def_209 .def_236))) (let ((.def_240 (= .def_204 #b00011))) (let ((.def_241 (ite .def_240 .def_239 .def_235))) (let ((.def_242 (bvule .def_209 .def_200))) (let ((.def_243 (bvsle .def_209 .def_200))) (let ((.def_244 (ite .def_216 .def_243 .def_242))) (let ((.def_245 (ite .def_244 .def_209 .def_208))) (let ((.def_246 (= .def_204 #b00101))) (let ((.def_247 (ite .def_246 .def_245 .def_241))) (let ((.def_248 (bvule .def_200 .def_209))) (let ((.def_249 (bvsle .def_200 .def_209))) (let ((.def_250 (ite .def_216 .def_249 .def_248))) (let ((.def_251 (ite .def_250 .def_209 .def_208))) (let ((.def_252 (= .def_204 #b00100))) (let ((.def_253 (ite .def_252 .def_251 .def_247))) (let ((.def_254 (= .def_204 #b00010))) (let ((.def_255 (or .def_206 .def_254))) (let ((.def_256 (ite .def_255 .def_232 false))) (let ((.def_257 (ite .def_205 true .def_256))) (let ((.def_258 (= .def_204 #b00000))) (let ((.def_259 (ite .def_258 false .def_257))) (let ((.def_260 (ite .def_259 #b1 #b0))) (let ((.def_261 ((_ zero_extend 16) .def_260))) (let ((.def_262 ((_ zero_extend 1) .def_208))) (let ((.def_263 ((_ zero_extend 1) .def_209))) (let ((.def_264 (bvadd .def_263 .def_262))) (let ((.def_265 (bvadd .def_264 .def_261))) (let ((.def_266 ((_ extract 15 0) .def_265))) (let ((.def_267 (or .def_206 .def_205 .def_258 .def_254))) (let ((.def_268 (ite .def_267 .def_266 .def_253))) (let ((.def_269 ((_ extract 15 15) .def_268))) (let ((.def_270 (= .def_269 #b1))) (let ((.def_271 (= .def_268 #b0000000000000000))) (let ((.def_272 (not .def_271))) (let ((.def_273 (and .def_272 .def_270))) (let ((.def_274 (or .def_270 .def_271))) (let ((.def_275 ((_ extract 18 14) .def_202))) (let ((.def_276 (= .def_275 #b10010))) (let ((.def_277 (ite .def_276 .def_274 .def_273))) (let ((.def_278 (not .def_270))) (let ((.def_279 (and .def_272 .def_278))) (let ((.def_280 (= .def_275 #b10001))) (let ((.def_281 (ite .def_280 .def_279 .def_277))) (let ((.def_282 (or .def_278 .def_271))) (let ((.def_283 (= .def_275 #b10000))) (let ((.def_284 (ite .def_283 .def_282 .def_281))) (let ((.def_285 (ite .def_232 #b1 #b0))) (let ((.def_286 ((_ extract 1 1) .def_229))) (let ((.def_287 ((_ extract 0 0) .def_286))) (let ((.def_288 (= .def_287 #b1))) (let ((.def_289 (ite .def_288 #b1 #b0))) (let ((.def_290 (concat .def_289 .def_285))) (let ((.def_291 ((_ extract 2 2) .def_229))) (let ((.def_292 ((_ extract 0 0) .def_291))) (let ((.def_293 (= .def_292 #b1))) (let ((.def_294 (ite .def_293 #b1 #b0))) (let ((.def_295 (concat .def_294 .def_290))) (let ((.def_296 ((_ zero_extend 5) .def_295))) (let ((.def_297 ((_ extract 13 6) .def_202))) (let ((.def_298 (bvlshr .def_297 .def_296))) (let ((.def_299 (bvand .def_298 #b00000001))) (let ((.def_300 ((_ extract 0 0) .def_299))) (let ((.def_301 (= .def_300 #b1))) (let ((.def_302 (= .def_275 #b01110))) (let ((.def_303 (ite .def_302 .def_301 .def_284))) (let ((.def_304 ((_ extract 15 15) .def_209))) (let ((.def_305 (= .def_304 #b1))) (let ((.def_306 (ite .def_240 .def_305 false))) (let ((.def_307 (ite .def_246 .def_244 .def_306))) (let ((.def_308 (ite .def_252 .def_250 .def_307))) (let ((.def_309 ((_ extract 16 16) .def_265))) (let ((.def_310 (= .def_309 #b1))) (let ((.def_311 (ite .def_267 .def_310 .def_308))) (let ((.def_312 (= .def_275 #b01111))) (let ((.def_313 (ite .def_312 .def_311 .def_303))) (let ((.def_314 (not .def_305))) (let ((.def_315 ((_ extract 15 15) .def_208))) (let ((.def_316 (= .def_315 #b1))) (let ((.def_317 (not .def_316))) (let ((.def_318 ((_ extract 15 15) .def_266))) (let ((.def_319 (= .def_318 #b1))) (let ((.def_320 (and .def_319 .def_317 .def_314))) (let ((.def_321 (not .def_319))) (let ((.def_322 (and .def_321 .def_305 .def_316))) (let ((.def_323 (or .def_322 .def_320))) (let ((.def_324 (ite .def_267 .def_323 false))) (let ((.def_325 (= .def_270 .def_324))) (let ((.def_326 (not .def_325))) (let ((.def_327 (or .def_326 .def_271))) (let ((.def_328 (= .def_275 #b01101))) (let ((.def_329 (ite .def_328 .def_327 .def_313))) (let ((.def_330 (and .def_272 .def_325))) (let ((.def_331 (= .def_275 #b01100))) (let ((.def_332 (ite .def_331 .def_330 .def_329))) (let ((.def_333 (= .def_275 #b01011))) (let ((.def_334 (ite .def_333 .def_326 .def_332))) (let ((.def_335 (= .def_275 #b01010))) (let ((.def_336 (ite .def_335 .def_325 .def_334))) (let ((.def_337 (ite .def_267 .def_310 false))) (let ((.def_338 (not .def_337))) (let ((.def_339 (or .def_338 .def_271))) (let ((.def_340 (= .def_275 #b01001))) (let ((.def_341 (ite .def_340 .def_339 .def_336))) (let ((.def_342 (and .def_272 .def_337))) (let ((.def_343 (= .def_275 #b01000))) (let ((.def_344 (ite .def_343 .def_342 .def_341))) (let ((.def_345 (not .def_324))) (let ((.def_346 (= .def_275 #b00111))) (let ((.def_347 (ite .def_346 .def_345 .def_344))) (let ((.def_348 (= .def_275 #b00110))) (let ((.def_349 (ite .def_348 .def_324 .def_347))) (let ((.def_350 (= .def_275 #b00101))) (let ((.def_351 (ite .def_350 .def_278 .def_349))) (let ((.def_352 (= .def_275 #b00100))) (let ((.def_353 (ite .def_352 .def_270 .def_351))) (let ((.def_354 (= .def_275 #b00011))) (let ((.def_355 (ite .def_354 .def_338 .def_353))) (let ((.def_356 (= .def_275 #b00010))) (let ((.def_357 (ite .def_356 .def_337 .def_355))) (let ((.def_358 (= .def_275 #b00001))) (let ((.def_359 (ite .def_358 .def_272 .def_357))) (let ((.def_360 (= .def_275 #b00000))) (let ((.def_361 (ite .def_360 .def_271 .def_359))) (let ((.def_362 (ite .def_361 #b1 #b0))) (let ((.def_363 (concat .def_362 .def_268))) (let ((.def_364 (concat #b00000000000000000000000000000000 .def_363))) (let ((.def_365 ((_ extract 15 0) .def_364))) (let ((.def_366 ((_ extract 15 0) .def_365))) (let ((.def_367 (= .def_190 .def_366))) (let ((.def_368 (= V_18 #b01))) (let ((.def_369 (and .def_192 .def_368 .def_0 .def_367))) (let ((.def_370 (or .def_369 .def_193))) .def_370)))))))))))))))))))))))))))))))))))))))))))))))))))))))))))))))))))))))))))))))))))))))))))))))))))))))))))))))))))))))))))))))))))))))))))))))))))))))))))))))))))))))))))))))))))))))))))))))))))))))))))))))))))))))))))))))))))))))))))))))))))))))))))))))))))))))))))))))))))))))))))))))))))))))))))))))))))))))))))))))))))))))))))))))))))))))))))))))))))))))))))))))))))))).def_0))
(check-sat)
